problems/csplib-prob056/sonet-models/noch/O2/lingeling/model_8_1-s3ring10-solution000001.solution
language Essence 1.3

letting network be mset({}, {}, {1, 2, 7, 12}, {1, 3, 4, 6, 10}, {2, 4, 7, 8, 13}, {3, 5, 8, 9, 13}, {3, 6, 11, 12, 13})
$ Here is a simple "visualisation" for the value above.
$ 
$ 
$  1  2  7 12
$  1  3  4  6 10
$  2  4  7  8 13
$  3  5  8  9 13
$  3  6 11 12 13

